100
30
5
1
2
7
32
31
15
25
1
15
17
2
19
12
20
2
18
16
14
7
2
10
29
10
4
2
5
15
20
2
15
15
13
10
5
2
31
20
9
5
31
20
18
10
18
16
32
31
26
3
32
11
9
19
23
6
2
12
7
12
6
11
19
30
32
31
14
23
16
32
2
31
3
11
18
1
19
16
1
3
21
20
31
32
30
30
9
32
31
10
5
6
19
19
29
9
9
6
5
7